(set-logic SLHV)
(declare-hvar emp IntHeap)
(declare-locvar nil IntLoc)
(declare-datatype pt_record_0 ((Pt_R_0 (loc IntLoc))))
(declare-datatype pt_record_1 ((Pt_R_1 (data Int))))
(declare-const invalidFree_3 Bool)
(declare-const loc_3 Int)
(declare-const invalidFree_2 Bool)
(declare-hvar H_2 IntHeap)
(declare-hvar H_3 IntHeap)
(declare-hvar AH_2 IntHeap)
(declare-hvar AH_3 IntHeap)
(declare-const $r_main0_2 Int)
(declare-const $r_main0_3 Int)
(declare-const $i8_foo0_2 Int)
(declare-const $i8_foo0_3 Int)
(declare-const $i7_main0_2 Int)
(declare-const $i7_main0_3 Int)
(declare-const $i7_foo0_2 Int)
(declare-const $i7_foo0_3 Int)
(declare-const $i6_main0_2 Int)
(declare-const $i6_main0_3 Int)
(declare-const $i6_foo0_2 Int)
(declare-const $i6_foo0_3 Int)
(declare-const $i5_main0_2 Int)
(declare-const $i5_main0_3 Int)
(declare-const $i4_foo0_2 Int)
(declare-const $i4_foo0_3 Int)
(declare-const $i2_main0_2 Int)
(declare-const $i2_main0_3 Int)
(declare-const $i2_foo0_2 Int)
(declare-const $i2_foo0_3 Int)
(declare-const $i1_main0_2 Int)
(declare-const $i1_main0_3 Int)
(declare-const $i1_foo0_2 Int)
(declare-const $i1_foo0_3 Int)
(declare-const $i0_main0_2 Int)
(declare-const $i0_main0_3 Int)
(declare-const $i0_foo0_2 Int)
(declare-const $i0_foo0_3 Int)
(declare-const $M.0_2 Int)
(declare-const $M.0_3 Int)
(declare-locvar $p9_main0_2 IntLoc)
(declare-locvar $p9_main0_3 IntLoc)
(declare-locvar $p8_main0_2 IntLoc)
(declare-locvar $p8_main0_3 IntLoc)
(declare-locvar $p5_foo0_2 IntLoc)
(declare-locvar $p5_foo0_3 IntLoc)
(declare-locvar $p4_main0_2 IntLoc)
(declare-locvar $p4_main0_3 IntLoc)
(declare-locvar $p3_main0_2 IntLoc)
(declare-locvar $p3_main0_3 IntLoc)
(declare-locvar $p3_foo0_2 IntLoc)
(declare-locvar $p3_foo0_3 IntLoc)
(declare-locvar $p24_main0_2 IntLoc)
(declare-locvar $p24_main0_3 IntLoc)
(declare-locvar $p23_main0_2 IntLoc)
(declare-locvar $p23_main0_3 IntLoc)
(declare-locvar $p22_main0_2 IntLoc)
(declare-locvar $p22_main0_3 IntLoc)
(declare-locvar $p21_main0_2 IntLoc)
(declare-locvar $p21_main0_3 IntLoc)
(declare-locvar $p20_main0_2 IntLoc)
(declare-locvar $p20_main0_3 IntLoc)
(declare-locvar $p19_main0_2 IntLoc)
(declare-locvar $p19_main0_3 IntLoc)
(declare-locvar $p18_main0_2 IntLoc)
(declare-locvar $p18_main0_3 IntLoc)
(declare-locvar $p17_main0_2 IntLoc)
(declare-locvar $p17_main0_3 IntLoc)
(declare-locvar $p16_main0_2 IntLoc)
(declare-locvar $p16_main0_3 IntLoc)
(declare-locvar $p11_main0_2 IntLoc)
(declare-locvar $p11_main0_3 IntLoc)
(declare-locvar $p10_main0_2 IntLoc)
(declare-locvar $p10_main0_3 IntLoc)
(declare-locvar $M.3_2 IntLoc)
(declare-locvar $M.3_3 IntLoc)
(declare-locvar $M.1_2 IntLoc)
(declare-locvar $M.1_3 IntLoc)
(declare-locvar $p13_main01_3 IntLoc)
(declare-locvar $p13_main0_3 IntLoc)
(declare-locvar $p12_main01_3 IntLoc)
(declare-locvar $p12_main0_3 IntLoc)
(declare-const $i15_main01_3 Int)
(declare-const $i15_main0_3 Int)
(declare-const $i14_main01_3 Int)
(declare-const $i14_main0_3 Int)
(declare-const d9_3 Int)
(declare-hvar h5_3 IntHeap)
(declare-const loc_2 Int)
(declare-const $i15_main0_2 Int)
(declare-const $i14_main0_2 Int)
(declare-locvar $p13_main0_2 IntLoc)
(declare-locvar $p12_main0_2 IntLoc)
(declare-hvar H4_3 IntHeap)
(declare-locvar $p5_foo01_3 IntLoc)
(declare-locvar $p3_foo01_3 IntLoc)
(declare-const $i8_foo01_3 Int)
(declare-const $i7_foo01_3 Int)
(declare-const $i6_foo01_3 Int)
(declare-const $i4_foo01_3 Int)
(declare-hvar h3_3 IntHeap)
(declare-const d7_3 Int)
(declare-const invalidFree_1 Bool)
(declare-hvar H_1 IntHeap)
(declare-hvar AH_1 IntHeap)
(declare-const $r_main0_1 Int)
(declare-const $i8_foo0_1 Int)
(declare-const $i7_main0_1 Int)
(declare-const $i7_foo0_1 Int)
(declare-const $i6_main0_1 Int)
(declare-const $i6_foo0_1 Int)
(declare-const $i5_main0_1 Int)
(declare-const $i4_foo0_1 Int)
(declare-const $i2_main0_1 Int)
(declare-const $i2_foo0_1 Int)
(declare-const $i1_main0_1 Int)
(declare-const $i1_foo0_1 Int)
(declare-const $i15_main0_1 Int)
(declare-const $i14_main0_1 Int)
(declare-const $i0_main0_1 Int)
(declare-const $i0_foo0_1 Int)
(declare-const $M.0_1 Int)
(declare-locvar $p9_main0_1 IntLoc)
(declare-locvar $p8_main0_1 IntLoc)
(declare-locvar $p5_foo0_1 IntLoc)
(declare-locvar $p4_main0_1 IntLoc)
(declare-locvar $p3_main0_1 IntLoc)
(declare-locvar $p3_foo0_1 IntLoc)
(declare-locvar $p24_main0_1 IntLoc)
(declare-locvar $p23_main0_1 IntLoc)
(declare-locvar $p22_main0_1 IntLoc)
(declare-locvar $p21_main0_1 IntLoc)
(declare-locvar $p20_main0_1 IntLoc)
(declare-locvar $p19_main0_1 IntLoc)
(declare-locvar $p18_main0_1 IntLoc)
(declare-locvar $p17_main0_1 IntLoc)
(declare-locvar $p16_main0_1 IntLoc)
(declare-locvar $p13_main0_1 IntLoc)
(declare-locvar $p12_main0_1 IntLoc)
(declare-locvar $p11_main0_1 IntLoc)
(declare-locvar $p10_main0_1 IntLoc)
(declare-locvar $M.3_1 IntLoc)
(declare-locvar $M.1_1 IntLoc)
(declare-const loc_1 Int)
(declare-const $i2_foo01_2 Int)
(declare-const invalidFree_0 Bool)
(declare-const $r_main0_0 Int)
(declare-const $i8_foo0_0 Int)
(declare-const $i7_foo0_0 Int)
(declare-const $i6_foo0_0 Int)
(declare-const $i4_foo0_0 Int)
(declare-const $i2_foo0_0 Int)
(declare-const $i15_main0_0 Int)
(declare-const $i14_main0_0 Int)
(declare-locvar $p5_foo0_0 IntLoc)
(declare-locvar $p3_foo0_0 IntLoc)
(declare-locvar $p24_main0_0 IntLoc)
(declare-locvar $p23_main0_0 IntLoc)
(declare-locvar $p22_main0_0 IntLoc)
(declare-locvar $p21_main0_0 IntLoc)
(declare-locvar $p20_main0_0 IntLoc)
(declare-locvar $p19_main0_0 IntLoc)
(declare-locvar $p18_main0_0 IntLoc)
(declare-locvar $p17_main0_0 IntLoc)
(declare-locvar $p16_main0_0 IntLoc)
(declare-locvar $p13_main0_0 IntLoc)
(declare-locvar $p12_main0_0 IntLoc)
(declare-hvar H3_1 IntHeap)
(declare-hvar AH2_1 IntHeap)
(declare-locvar $p9_main01_1 IntLoc)
(declare-locvar $p8_main01_1 IntLoc)
(declare-locvar $p4_main01_1 IntLoc)
(declare-locvar $p3_main01_1 IntLoc)
(declare-locvar $p11_main01_1 IntLoc)
(declare-locvar $p10_main01_1 IntLoc)
(declare-const $i7_main01_1 Int)
(declare-const $i6_main01_1 Int)
(declare-const $i5_main01_1 Int)
(declare-const $i2_main01_1 Int)
(declare-const $i1_main01_1 Int)
(declare-const $i1_foo01_1 Int)
(declare-const $i0_main01_1 Int)
(declare-const $i0_foo01_1 Int)
(declare-locvar $M.33_1 IntLoc)
(declare-locvar $M.12_1 IntLoc)
(declare-const $M.02_1 Int)
(declare-hvar h1_1 IntHeap)
(declare-const d5_1 Int)
(declare-hvar H2_1 IntHeap)
(declare-locvar $M.32_1 IntLoc)
(declare-locvar l3_1 IntLoc)
(declare-hvar AH1_1 IntHeap)
(declare-locvar l4_1 IntLoc)
(declare-const d4_1 Int)
(declare-const d3_1 Int)
(declare-hvar H1_1 IntHeap)
(declare-locvar l1_1 IntLoc)
(declare-hvar AH_0 IntHeap)
(declare-locvar l2_1 IntLoc)
(declare-const d2_1 Int)
(declare-const d1_1 Int)
(declare-hvar H_0 IntHeap)
(declare-locvar $M.31_1 IntLoc)
(declare-locvar $M.11_1 IntLoc)
(declare-const $M.01_1 Int)
(declare-const loc_0 Int)
(assert
 (let (($x1462 (= loc_3 6)))
 (let (($x1563 (= invalidFree_3 invalidFree_2)))
 (let (($x1458 (= H_3 H_2)))
 (let (($x1362 (= AH_3 AH_2)))
 (let (($x1363 (and true $x1362)))
 (let (($x1459 (and $x1363 $x1458)))
 (let (($x1358 (= $r_main0_3 $r_main0_2)))
 (let (($x1454 (= $i8_foo0_3 $i8_foo0_2)))
 (let (($x1355 (= $i7_main0_3 $i7_main0_2)))
 (let (($x1451 (= $i7_foo0_3 $i7_foo0_2)))
 (let (($x1352 (= $i6_main0_3 $i6_main0_2)))
 (let (($x1448 (= $i6_foo0_3 $i6_foo0_2)))
 (let (($x1349 (= $i5_main0_3 $i5_main0_2)))
 (let (($x1445 (= $i4_foo0_3 $i4_foo0_2)))
 (let (($x1346 (= $i2_main0_3 $i2_main0_2)))
 (let (($x1343 (= $i2_foo0_3 $i2_foo0_2)))
 (let (($x1340 (= $i1_main0_3 $i1_main0_2)))
 (let (($x1337 (= $i1_foo0_3 $i1_foo0_2)))
 (let (($x1328 (= $i0_main0_3 $i0_main0_2)))
 (let (($x1329 (and (and (and true (= $M.0_3 $M.0_2)) (= $i0_foo0_3 $i0_foo0_2)) $x1328)))
 (let (($x1447 (and (and (and (and (and (and $x1329 $x1337) $x1340) $x1343) $x1346) $x1445) $x1349)))
 (let (($x1456 (and (and (and (and (and (and $x1447 $x1448) $x1352) $x1451) $x1355) $x1454) $x1358)))
 (let (($x1318 (= $p9_main0_3 $p9_main0_2)))
 (let (($x1315 (= $p8_main0_3 $p8_main0_2)))
 (let (($x1436 (= $p5_foo0_3 $p5_foo0_2)))
 (let (($x1312 (= $p4_main0_3 $p4_main0_2)))
 (let (($x1309 (= $p3_main0_3 $p3_main0_2)))
 (let (($x1432 (= $p3_foo0_3 $p3_foo0_2)))
 (let (($x1306 (= $p24_main0_3 $p24_main0_2)))
 (let (($x1303 (= $p23_main0_3 $p23_main0_2)))
 (let (($x1300 (= $p22_main0_3 $p22_main0_2)))
 (let (($x1297 (= $p21_main0_3 $p21_main0_2)))
 (let (($x1294 (= $p20_main0_3 $p20_main0_2)))
 (let (($x1291 (= $p19_main0_3 $p19_main0_2)))
 (let (($x1288 (= $p18_main0_3 $p18_main0_2)))
 (let (($x1285 (= $p17_main0_3 $p17_main0_2)))
 (let (($x1282 (= $p16_main0_3 $p16_main0_2)))
 (let (($x1273 (= $p11_main0_3 $p11_main0_2)))
 (let (($x1270 (= $p10_main0_3 $p10_main0_2)))
 (let (($x1271 (and (and (and true (= $M.1_3 $M.1_2)) (= $M.3_3 $M.3_2)) $x1270)))
 (let (($x1274 (and $x1271 $x1273)))
 (let (($x1428 (and (and (and (and (and (and $x1274 $x1282) $x1285) $x1288) $x1291) $x1294) $x1297)))
 (let (($x1435 (and (and (and (and (and (and $x1428 $x1300) $x1303) $x1306) $x1432) $x1309) $x1312)))
 (let (($x1439 (and (and (and $x1435 $x1436) $x1315) $x1318)))
 (let (($x1418 (= $p13_main0_3 $p13_main01_3)))
 (let (($x1416 (= $p12_main0_3 $p12_main01_3)))
 (let (($x1414 (= $i15_main0_3 $i15_main01_3)))
 (let (($x1413 (= $i14_main0_3 $i14_main01_3)))
 (let (($x1419 (and (and (and $x1413 $x1414) $x1416) $x1418)))
 (let (($x1574 (and $x1419 true)))
 (let (($x1385 (or (and (and (distinct $i14_main01_3 0) true) (= $i15_main01_3 1)) (and (not (and (distinct $i14_main01_3 0) true)) (= $i15_main01_3 0)))))
 (let (($x1394 (and (= H_2 (uplus h5_3 (pt $p13_main01_3 (Pt_R_1 d9_3)))) (= $i14_main01_3 d9_3))))
 (let (($x1568 (or $x1394 invalidFree_2)))
 (let (($x1406 (= $p13_main01_3 (locadd $p12_main01_3 2))))
 (let (($x1569 (or $x1406 invalidFree_2)))
 (let (($x1408 (= $p12_main01_3 $M.3_2)))
 (let (($x1570 (or $x1408 invalidFree_2)))
 (let (($x1576 (and (and (and (and (and $x1570 $x1569) $x1568) (or $x1385 invalidFree_2)) $x1574) $x1439)))
 (let (($x1177 (= loc_2 4)))
 (let (($x1367 (= loc_3 5)))
 (let (($x1334 (= $i15_main0_3 $i15_main0_2)))
 (let (($x1341 (and (and (and (and $x1329 (= $i14_main0_3 $i14_main0_2)) $x1334) $x1337) $x1340)))
 (let (($x1359 (and (and (and (and (and (and $x1341 $x1343) $x1346) $x1349) $x1352) $x1355) $x1358)))
 (let (($x1279 (= $p13_main0_3 $p13_main0_2)))
 (let (($x1286 (and (and (and (and $x1274 (= $p12_main0_3 $p12_main0_2)) $x1279) $x1282) $x1285)))
 (let (($x1304 (and (and (and (and (and (and $x1286 $x1288) $x1291) $x1294) $x1297) $x1300) $x1303)))
 (let (($x1319 (and (and (and (and (and $x1304 $x1306) $x1309) $x1312) $x1315) $x1318)))
 (let (($x1257 (= H_3 H4_3)))
 (let (($x1254 (= $p5_foo0_3 $p5_foo01_3)))
 (let (($x1251 (= $p3_foo0_3 $p3_foo01_3)))
 (let (($x1248 (= $i8_foo0_3 $i8_foo01_3)))
 (let (($x1245 (= $i7_foo0_3 $i7_foo01_3)))
 (let (($x1246 (and (and (= $i4_foo0_3 $i4_foo01_3) (= $i6_foo0_3 $i6_foo01_3)) $x1245)))
 (let (($x1258 (and (and (and (and $x1246 $x1248) $x1251) $x1254) $x1257)))
 (let (($x1557 (and $x1258 true)))
 (let (($x1199 (or (and (< $i6_foo01_3 $i7_foo01_3) (= $i8_foo01_3 1)) (and (not (< $i6_foo01_3 $i7_foo01_3)) (= $i8_foo01_3 0)))))
 (let (($x1201 (= $i7_foo01_3 $M.0_2)))
 (let (($x1545 (or $x1201 invalidFree_2)))
 (let (($x1215 (and (= H_2 (uplus h3_3 (pt $p5_foo01_3 (Pt_R_1 d7_3)))) (= H4_3 (uplus h3_3 (pt $p5_foo01_3 (Pt_R_1 (- 1))))))))
 (let (($x1547 (or $x1215 invalidFree_2)))
 (let (($x1227 (= $p5_foo01_3 (locadd $p3_foo01_3 $i4_foo01_3))))
 (let (($x1548 (or $x1227 invalidFree_2)))
 (let (($x1229 (= $i4_foo01_3 $i2_foo0_2)))
 (let (($x1549 (or $x1229 invalidFree_2)))
 (let (($x1231 (= $p3_foo01_3 $M.1_2)))
 (let (($x1550 (or $x1231 invalidFree_2)))
 (let (($x1554 (and (and (and (and $x1550 $x1549) $x1548) $x1547) (or (= $i6_foo01_3 (+ $i2_foo0_2 1)) invalidFree_2))))
 (let (($x1560 (and (and (and (and (and $x1554 $x1545) (or $x1199 invalidFree_2)) $x1557) $x1319) $x1359)))
 (let (($x1153 (= loc_2 3)))
 (let (($x1582 (and (=> $x1153 (and (and (and $x1560 $x1363) $x1563) $x1367)) (=> $x1177 (and (and (and (and $x1576 $x1456) $x1459) $x1563) $x1462)))))
 (let (($x1530 (= invalidFree_2 invalidFree_1)))
 (let (($x1146 (= H_2 H_1)))
 (let (($x1147 (and (and true (= AH_2 AH_1)) $x1146)))
 (let (($x1139 (= $r_main0_2 $r_main0_1)))
 (let (($x1136 (= $i8_foo0_2 $i8_foo0_1)))
 (let (($x1133 (= $i7_main0_2 $i7_main0_1)))
 (let (($x1130 (= $i7_foo0_2 $i7_foo0_1)))
 (let (($x1127 (= $i6_main0_2 $i6_main0_1)))
 (let (($x1124 (= $i6_foo0_2 $i6_foo0_1)))
 (let (($x1121 (= $i5_main0_2 $i5_main0_1)))
 (let (($x1118 (= $i4_foo0_2 $i4_foo0_1)))
 (let (($x1115 (= $i2_main0_2 $i2_main0_1)))
 (let (($x1162 (= $i2_foo0_2 $i2_foo0_1)))
 (let (($x1112 (= $i1_main0_2 $i1_main0_1)))
 (let (($x1109 (= $i1_foo0_2 $i1_foo0_1)))
 (let (($x1106 (= $i15_main0_2 $i15_main0_1)))
 (let (($x1103 (= $i14_main0_2 $i14_main0_1)))
 (let (($x1100 (= $i0_main0_2 $i0_main0_1)))
 (let (($x1101 (and (and (and true (= $M.0_2 $M.0_1)) (= $i0_foo0_2 $i0_foo0_1)) $x1100)))
 (let (($x1113 (and (and (and (and $x1101 $x1103) $x1106) $x1109) $x1112)))
 (let (($x1168 (and (and (and (and (and (and $x1113 $x1162) $x1115) $x1118) $x1121) $x1124) $x1127)))
 (let (($x1172 (and (and (and (and $x1168 $x1130) $x1133) $x1136) $x1139)))
 (let (($x1090 (= $p9_main0_2 $p9_main0_1)))
 (let (($x1087 (= $p8_main0_2 $p8_main0_1)))
 (let (($x1084 (= $p5_foo0_2 $p5_foo0_1)))
 (let (($x1081 (= $p4_main0_2 $p4_main0_1)))
 (let (($x1078 (= $p3_main0_2 $p3_main0_1)))
 (let (($x1075 (= $p3_foo0_2 $p3_foo0_1)))
 (let (($x1072 (= $p24_main0_2 $p24_main0_1)))
 (let (($x1069 (= $p23_main0_2 $p23_main0_1)))
 (let (($x1066 (= $p22_main0_2 $p22_main0_1)))
 (let (($x1063 (= $p21_main0_2 $p21_main0_1)))
 (let (($x1060 (= $p20_main0_2 $p20_main0_1)))
 (let (($x1057 (= $p19_main0_2 $p19_main0_1)))
 (let (($x1054 (= $p18_main0_2 $p18_main0_1)))
 (let (($x1051 (= $p17_main0_2 $p17_main0_1)))
 (let (($x1048 (= $p16_main0_2 $p16_main0_1)))
 (let (($x1045 (= $p13_main0_2 $p13_main0_1)))
 (let (($x1042 (= $p12_main0_2 $p12_main0_1)))
 (let (($x1039 (= $p11_main0_2 $p11_main0_1)))
 (let (($x1036 (= $p10_main0_2 $p10_main0_1)))
 (let (($x1037 (and (and (and true (= $M.1_2 $M.1_1)) (= $M.3_2 $M.3_1)) $x1036)))
 (let (($x1055 (and (and (and (and (and (and $x1037 $x1039) $x1042) $x1045) $x1048) $x1051) $x1054)))
 (let (($x1073 (and (and (and (and (and (and $x1055 $x1057) $x1060) $x1063) $x1066) $x1069) $x1072)))
 (let (($x1091 (and (and (and (and (and (and $x1073 $x1075) $x1078) $x1081) $x1084) $x1087) $x1090)))
 (let (($x1537 (and (and (and (or true invalidFree_1) (and true true)) $x1091) $x1172)))
 (let (($x1016 (= loc_1 2)))
 (let (($x1157 (and $x1016 (not (= $i1_foo0_1 1)))))
 (let (($x1131 (and (and (and (and (and (and $x1113 $x1115) $x1118) $x1121) $x1124) $x1127) $x1130)))
 (let (($x1140 (and (and (and $x1131 $x1133) $x1136) $x1139)))
 (let (($x1026 (= $i2_foo0_2 $i2_foo01_2)))
 (let (($x1027 (and $x1026 true)))
 (let (($x1023 (= $i2_foo01_2 0)))
 (let (($x1524 (or $x1023 invalidFree_1)))
 (let (($x1532 (and (and (and (and (and (and $x1524 $x1027) $x1091) $x1140) $x1147) $x1530) $x1153)))
 (let (($x1021 (= $i1_foo0_1 1)))
 (let (($x1022 (and $x1016 $x1021)))
 (let (($x1542 (and (=> $x1022 $x1532) (=> $x1157 (and (and (and $x1537 $x1147) $x1530) $x1177)))))
 (let (($x1519 (= invalidFree_1 invalidFree_0)))
 (let (($x1012 (= $r_main0_1 $r_main0_0)))
 (let (($x1008 (= $i8_foo0_1 $i8_foo0_0)))
 (let (($x1004 (= $i7_foo0_1 $i7_foo0_0)))
 (let (($x1000 (= $i6_foo0_1 $i6_foo0_0)))
 (let (($x996 (= $i4_foo0_1 $i4_foo0_0)))
 (let (($x992 (= $i2_foo0_1 $i2_foo0_0)))
 (let (($x988 (= $i15_main0_1 $i15_main0_0)))
 (let (($x997 (and (and (and (and true (= $i14_main0_1 $i14_main0_0)) $x988) $x992) $x996)))
 (let (($x1013 (and (and (and (and $x997 $x1000) $x1004) $x1008) $x1012)))
 (let (($x979 (= $p5_foo0_1 $p5_foo0_0)))
 (let (($x975 (= $p3_foo0_1 $p3_foo0_0)))
 (let (($x971 (= $p24_main0_1 $p24_main0_0)))
 (let (($x967 (= $p23_main0_1 $p23_main0_0)))
 (let (($x963 (= $p22_main0_1 $p22_main0_0)))
 (let (($x959 (= $p21_main0_1 $p21_main0_0)))
 (let (($x955 (= $p20_main0_1 $p20_main0_0)))
 (let (($x951 (= $p19_main0_1 $p19_main0_0)))
 (let (($x947 (= $p18_main0_1 $p18_main0_0)))
 (let (($x943 (= $p17_main0_1 $p17_main0_0)))
 (let (($x939 (= $p16_main0_1 $p16_main0_0)))
 (let (($x935 (= $p13_main0_1 $p13_main0_0)))
 (let (($x944 (and (and (and (and true (= $p12_main0_1 $p12_main0_0)) $x935) $x939) $x943)))
 (let (($x968 (and (and (and (and (and (and $x944 $x947) $x951) $x955) $x959) $x963) $x967)))
 (let (($x980 (and (and (and $x968 $x971) $x975) $x979)))
 (let (($x923 (= H_1 H3_1)))
 (let (($x920 (= AH_1 AH2_1)))
 (let (($x917 (= $p9_main0_1 $p9_main01_1)))
 (let (($x914 (= $p8_main0_1 $p8_main01_1)))
 (let (($x911 (= $p4_main0_1 $p4_main01_1)))
 (let (($x908 (= $p3_main0_1 $p3_main01_1)))
 (let (($x905 (= $p11_main0_1 $p11_main01_1)))
 (let (($x902 (= $p10_main0_1 $p10_main01_1)))
 (let (($x899 (= $i7_main0_1 $i7_main01_1)))
 (let (($x896 (= $i6_main0_1 $i6_main01_1)))
 (let (($x893 (= $i5_main0_1 $i5_main01_1)))
 (let (($x890 (= $i2_main0_1 $i2_main01_1)))
 (let (($x887 (= $i1_main0_1 $i1_main01_1)))
 (let (($x884 (= $i1_foo0_1 $i1_foo01_1)))
 (let (($x881 (= $i0_main0_1 $i0_main01_1)))
 (let (($x878 (= $i0_foo0_1 $i0_foo01_1)))
 (let (($x875 (= $M.3_1 $M.33_1)))
 (let (($x879 (and (and (and (= $M.0_1 $M.02_1) (= $M.1_1 $M.12_1)) $x875) $x878)))
 (let (($x897 (and (and (and (and (and (and $x879 $x881) $x884) $x887) $x890) $x893) $x896)))
 (let (($x915 (and (and (and (and (and (and $x897 $x899) $x902) $x905) $x908) $x911) $x914)))
 (let (($x924 (and (and (and $x915 $x917) $x920) $x923)))
 (let (($x1514 (and $x924 true)))
 (let (($x755 (or (and (< 0 $i0_foo01_1) (= $i1_foo01_1 1)) (and (not (< 0 $i0_foo01_1)) (= $i1_foo01_1 0)))))
 (let (($x757 (= $i0_foo01_1 $M.02_1)))
 (let (($x1472 (or $x757 invalidFree_0)))
 (let (($x768 (and (= H2_1 (uplus h1_1 (pt $p10_main01_1 (Pt_R_1 d5_1)))) (= H3_1 (uplus h1_1 (pt $p10_main01_1 (Pt_R_1 0)))))))
 (let (($x1473 (or $x768 invalidFree_0)))
 (let (($x779 (= $M.33_1 $p11_main01_1)))
 (let (($x1474 (or $x779 invalidFree_0)))
 (let (($x782 (= $p11_main01_1 (locadd $p10_main01_1 1))))
 (let (($x1475 (or $x782 invalidFree_0)))
 (let (($x784 (= $p10_main01_1 $M.32_1)))
 (let (($x1476 (or $x784 invalidFree_0)))
 (let (($x786 (= $M.32_1 $p8_main01_1)))
 (let (($x1477 (or $x786 invalidFree_0)))
 (let (($x788 (= $p9_main01_1 $p8_main01_1)))
 (let (($x1478 (or $x788 invalidFree_0)))
 (let (($x792 (= AH2_1 (uplus AH1_1 (pt l3_1 (Pt_R_1 3))))))
 (let (($x793 (= $p8_main01_1 l3_1)))
 (let (($x795 (= l4_1 (locadd l3_1 1))))
 (let ((?x801 (uplus H1_1 (uplus (pt l3_1 (Pt_R_1 d3_1)) (pt l4_1 (Pt_R_1 d4_1))))))
 (let (($x802 (= H2_1 ?x801)))
 (let (($x805 (and (and (and $x802 $x795) $x793) $x792)))
 (let (($x807 (= $i7_main01_1 8)))
 (let (($x1480 (or $x807 invalidFree_0)))
 (let (($x809 (= $i6_main01_1 2)))
 (let (($x1481 (or $x809 invalidFree_0)))
 (let (($x811 (= $i5_main01_1 $M.02_1)))
 (let (($x1482 (or $x811 invalidFree_0)))
 (let (($x813 (= $M.12_1 $p3_main01_1)))
 (let (($x1483 (or $x813 invalidFree_0)))
 (let (($x815 (= $p4_main01_1 $p3_main01_1)))
 (let (($x1484 (or $x815 invalidFree_0)))
 (let (($x819 (= AH1_1 (uplus AH_0 (pt l1_1 (Pt_R_1 2))))))
 (let (($x820 (= $p3_main01_1 l1_1)))
 (let (($x822 (= l2_1 (locadd l1_1 1))))
 (let ((?x828 (uplus H_0 (uplus (pt l1_1 (Pt_R_1 d1_1)) (pt l2_1 (Pt_R_1 d2_1))))))
 (let (($x829 (= H1_1 ?x828)))
 (let (($x832 (and (and (and $x829 $x822) $x820) $x819)))
 (let (($x834 (= $i2_main01_1 8)))
 (let (($x1486 (or $x834 invalidFree_0)))
 (let (($x836 (= $i1_main01_1 2)))
 (let (($x1487 (or $x836 invalidFree_0)))
 (let (($x838 (= $i0_main01_1 $M.02_1)))
 (let (($x1488 (or $x838 invalidFree_0)))
 (let (($x840 (= $M.02_1 2)))
 (let (($x1489 (or $x840 invalidFree_0)))
 (let (($x842 (= $M.31_1 nil)))
 (let (($x1490 (or $x842 invalidFree_0)))
 (let (($x844 (= $M.11_1 nil)))
 (let (($x1491 (or $x844 invalidFree_0)))
 (let (($x846 (= $M.01_1 0)))
 (let (($x1492 (or $x846 invalidFree_0)))
 (let (($x1498 (and (and (and (and (and (and $x1492 $x1491) $x1490) $x1489) $x1488) $x1487) $x1486)))
 (let (($x1503 (and (and (and (and (and $x1498 (or $x832 invalidFree_0)) $x1484) $x1483) $x1482) $x1481)))
 (let (($x1508 (and (and (and (and (and $x1503 $x1480) (or $x805 invalidFree_0)) $x1478) $x1477) $x1476)))
 (let (($x1513 (and (and (and (and (and $x1508 $x1475) $x1474) $x1473) $x1472) (or $x755 invalidFree_0))))
 (let (($x705 (= loc_0 1)))
 (let (($x1522 (=> $x705 (and (and (and (and (and $x1513 $x1514) $x980) $x1013) $x1519) $x1016))))
 (let (($x1469 (not invalidFree_0)))
 (let (($x707 (and (and (= H_0 emp) (= AH_0 emp)) $x705)))
 (and (and (and (and (and $x707 $x1469) $x1522) $x1542) $x1582) invalidFree_3))))))))))))))))))))))))))))))))))))))))))))))))))))))))))))))))))))))))))))))))))))))))))))))))))))))))))))))))))))))))))))))))))))))))))))))))))))))))))))))))))))))))))))))))))))))))))))))))))))))))))))))))))))))))))))))))))))))))))))))))))))))))))))))))
(check-sat)
